weniger-krumme-touren/beispiele/random/40/403.txt.solution
[39, 38, 37, 36, 35, 34, 33, 32, 31, 30, 29, 28, 27, 26, 25, 24, 23, 22, 21, 20, 19, 18, 17, 15, 13, 12, 11, 7, 8, 9, 10, 14, 6, 5, 4, 3, 2, 1, 16, 0]