weniger-krumme-touren/mip/johnson/403.log
Starting solution of the Linear programming relaxation problem using Primal Simplex

Coin0506I Presolve 20625 (-20584) rows, 820 (0) columns and 42808 (-41168) elements
Clp1000I sum of infeasibilities 8.94365e-05 - average 4.33631e-09, 619 fixed columns
Coin0506I Presolve 1221 (-19404) rows, 201 (-619) columns and 2762 (-40046) elements
Clp0006I 0  Obj 1015.8166 Primal inf 4.7371418e-05 (24) Dual inf 1.07e+10 (197)
Clp0029I End of values pass after 201 iterations
Clp0014I Perturbing problem by 0.001% of 1.0000001 - largest nonzero change 2.9914801e-05 ( 0.0014957401%) - largest zero change 2.8981471e-05
Clp0000I Optimal - objective value 1013.1697
Clp0000I Optimal - objective value 1013.1697
Coin0511I After Postsolve, objective 1013.1697, infeasibilities - dual 0 (0), primal 0 (0)
Clp0006I 0  Obj 1013.1697 Dual inf 17.316083 (3)
Clp0014I Perturbing problem by 0.001% of 1 - largest nonzero change 2.9976521e-05 ( 0.0014988261%) - largest zero change 2.9394864e-05
Clp0000I Optimal - objective value 1013.1697
Clp0000I Optimal - objective value 1013.1697
Clp0000I Optimal - objective value 1013.1697
Coin0511I After Postsolve, objective 1013.1697, infeasibilities - dual 0 (0), primal 0 (0)
Clp0032I Optimal objective 1013.169697 - 0 iterations time 0.602, Presolve 0.03, Idiot 0.56

Starting MIP optimization
Modell wird erstellt...
Suche Startlösung...
None
Suche optimale Lösung...
OptimizationStatus.OPTIMAL
C:\Users\Philip\Documents\programmieren\python\bwinf41-2\weniger-krumme-touren\beispiele\random\40\403.txt
Lösung gefunden!
Cbc0045I MIPStart provided solution with cost 1091.99
Cbc0012I Integer solution of 1091.995 found by Reduced search after 0 iterations and 0 nodes (0.10 seconds)
Cbc0013I At root node, 0 cuts changed objective from 1013.1697 to 1013.1697 in 1 passes
Cbc0014I Cut generator 0 (LazyConstraints) - 0 row cuts average 0.0 elements, 0 column cuts (0 active)  in 0.010 seconds - new frequency is 1
Cbc0014I Cut generator 1 (Probing) - 0 row cuts average 0.0 elements, 0 column cuts (0 active)  in 0.000 seconds - new frequency is -100
Cbc0014I Cut generator 2 (Gomory) - 0 row cuts average 0.0 elements, 0 column cuts (0 active)  in 0.000 seconds - new frequency is -100
Cbc0014I Cut generator 3 (Knapsack) - 0 row cuts average 0.0 elements, 0 column cuts (0 active)  in 0.000 seconds - new frequency is -100
Cbc0014I Cut generator 4 (MixedIntegerRounding2) - 0 row cuts average 0.0 elements, 0 column cuts (0 active)  in 0.000 seconds - new frequency is -100
Cbc0014I Cut generator 5 (FlowCover) - 0 row cuts average 0.0 elements, 0 column cuts (0 active)  in 0.000 seconds - new frequency is -100
Cbc0014I Cut generator 6 (TwoMirCuts) - 0 row cuts average 0.0 elements, 0 column cuts (0 active)  in 0.000 seconds - new frequency is -100
Cbc0014I Cut generator 7 (ZeroHalf) - 0 row cuts average 0.0 elements, 0 column cuts (0 active)  in 0.000 seconds - new frequency is -100
Cbc0004I Integer solution of 1083.7103 found after 599 iterations and 11 nodes (0.95 seconds)
Cbc0010I After 11 nodes, 3 on tree, 1083.7103 best solution, best possible 1042.1368 (0.96 seconds)
Cbc0001I Search completed - best objective 1083.710271642331, took 814 iterations and 14 nodes (1.04 seconds)
Cbc0032I Strong branching done 230 times (4777 iterations), fathomed 7 nodes and fixed 15 variables
Cbc0035I Maximum depth 6, 1650 variables fixed on reduced cost
Total time (CPU seconds):       1.13   (Wallclock seconds):       1.13

